sat-competition-2018/orders/benchmarks-chi/cms-scheel-sha3-order-w1-rc-o2.cnf
c This is a CNF SAT formula in the DIMACS CNF format,
c produced with the bc2cnf translator by Tommi Junttila;
c see http://users.ics.aalto.fi/tjunttil/circuits/index.html
c cidentity <-> 1
c h1out24 <-> 28
c h1r1c24 <-> 28
c h1out23 <-> 31
c h1r1c23 <-> 31
c h1out22 <-> 34
c h1r1c22 <-> 34
c h1out21 <-> 37
c h1r1c21 <-> 37
c h1out20 <-> 40
c h1r1c20 <-> 40
c h1out19 <-> 43
c h1r1c19 <-> 43
c h1out18 <-> 46
c h1r1c18 <-> 46
c h1out17 <-> 49
c h1r1c17 <-> 49
c h1out16 <-> 52
c h1r1c16 <-> 52
c h1out15 <-> 55
c h1r1c15 <-> 55
c h1out14 <-> 58
c h1r1c14 <-> 58
c h1out13 <-> 61
c h1r1c13 <-> 61
c h1out12 <-> 64
c h1r1c12 <-> 64
c h1out11 <-> 67
c h1r1c11 <-> 67
c h1out10 <-> 70
c h1r1c10 <-> 70
c h1out9 <-> 73
c h1r1c9 <-> 73
c h1out8 <-> 76
c h1r1c8 <-> 76
c h1out7 <-> 79
c h1r1c7 <-> 79
c h1out6 <-> 82
c h1r1c6 <-> 82
c h1out5 <-> 85
c h1r1c5 <-> 85
c h1out4 <-> 88
c h1r1c4 <-> 88
c h1out3 <-> 91
c h1r1c3 <-> 91
c h1out2 <-> 94
c h1r1c2 <-> 94
c h1out1 <-> 97
c h1r1c1 <-> 97
c h1out0 <-> 100
c h1r1c0 <-> 100
c h1r0c24 <-> 103
c h1r0c23 <-> 106
c h1r0c22 <-> 109
c h1in24 <-> 111
c h1r0c21 <-> 113
c h1in23 <-> 115
c h1r0c20 <-> 117
c h1in22 <-> 119
c h1in21 <-> 121
c h1in20 <-> 122
c h1r0c19 <-> 123
c h1r0c18 <-> 126
c h1r0c17 <-> 129
c h1in19 <-> 131
c h1r0c16 <-> 133
c h1in18 <-> 135
c h1r0c15 <-> 137
c h1in17 <-> 139
c h1in16 <-> 141
c h1in15 <-> 142
c h1r0c14 <-> 143
c h1r0c13 <-> 146
c h1r0c12 <-> 149
c h1in14 <-> 151
c h1r0c11 <-> 153
c h1in13 <-> 155
c h1r0c10 <-> 157
c h1in12 <-> 159
c h1in11 <-> 161
c h1in10 <-> 162
c h1r0c9 <-> 163
c h1r0c8 <-> 166
c h1r0c7 <-> 169
c h1in9 <-> 171
c h1r0c6 <-> 173
c h1in8 <-> 175
c h1r0c5 <-> 177
c h1in7 <-> 179
c h1in6 <-> 181
c h1in5 <-> 182
c h1r0c4 <-> 183
c h1r0c3 <-> 186
c h1r0c2 <-> 189
c h1in4 <-> 191
c h1r0c1 <-> 193
c h1in3 <-> 195
c h1r0c0 <-> 197
c h1in2 <-> 199
c h1in1 <-> 201
c h1in0 <-> 202
p cnf 202 578
1 0
-2 3 0
-2 4 0
-2 5 0
-2 6 0
-2 7 0
-2 8 0
-2 9 0
-2 10 0
-2 11 0
-2 12 0
-2 13 0
-2 14 0
-2 15 0
-2 16 0
-2 17 0
-2 18 0
-2 19 0
-2 20 0
-2 21 0
-2 22 0
-2 23 0
-2 24 0
-2 25 0
-2 26 0
-2 27 0
2 -27 -26 -25 -24 -23 -22 -21 -20 -19 -18 -17 -16 -15 -14 -13 -12 -11 -10 -9 -8 -7 -6 -5 -4 -3 0
-2 0
3 111 28 0
3 -111 -28 0
-3 111 -28 0
-3 -111 28 0
4 115 31 0
4 -115 -31 0
-4 115 -31 0
-4 -115 31 0
5 119 34 0
5 -119 -34 0
-5 119 -34 0
-5 -119 34 0
6 121 37 0
6 -121 -37 0
-6 121 -37 0
-6 -121 37 0
7 122 40 0
7 -122 -40 0
-7 122 -40 0
-7 -122 40 0
8 131 43 0
8 -131 -43 0
-8 131 -43 0
-8 -131 43 0
9 135 46 0
9 -135 -46 0
-9 135 -46 0
-9 -135 46 0
10 139 49 0
10 -139 -49 0
-10 139 -49 0
-10 -139 49 0
11 141 52 0
11 -141 -52 0
-11 141 -52 0
-11 -141 52 0
12 142 55 0
12 -142 -55 0
-12 142 -55 0
-12 -142 55 0
13 151 58 0
13 -151 -58 0
-13 151 -58 0
-13 -151 58 0
14 155 61 0
14 -155 -61 0
-14 155 -61 0
-14 -155 61 0
15 159 64 0
15 -159 -64 0
-15 159 -64 0
-15 -159 64 0
16 161 67 0
16 -161 -67 0
-16 161 -67 0
-16 -161 67 0
17 162 70 0
17 -162 -70 0
-17 162 -70 0
-17 -162 70 0
18 171 73 0
18 -171 -73 0
-18 171 -73 0
-18 -171 73 0
19 175 76 0
19 -175 -76 0
-19 175 -76 0
-19 -175 76 0
20 179 79 0
20 -179 -79 0
-20 179 -79 0
-20 -179 79 0
21 181 82 0
21 -181 -82 0
-21 181 -82 0
-21 -181 82 0
22 182 85 0
22 -182 -85 0
-22 182 -85 0
-22 -182 85 0
23 191 88 0
23 -191 -88 0
-23 191 -88 0
-23 -191 88 0
24 195 91 0
24 -195 -91 0
-24 195 -91 0
-24 -195 91 0
25 199 94 0
25 -199 -94 0
-25 199 -94 0
-25 -199 94 0
26 201 97 0
26 -201 -97 0
-26 201 -97 0
-26 -201 97 0
27 202 100 0
27 -202 -100 0
-27 202 -100 0
-27 -202 100 0
28 103 -29 0
28 -103 29 0
-28 103 29 0
-28 -103 -29 0
-29 30 0
-29 113 0
29 -113 -30 0
30 117 0
-30 -117 0
31 106 -32 0
31 -106 32 0
-31 106 32 0
-31 -106 -32 0
-32 33 0
-32 117 0
32 -117 -33 0
33 103 0
-33 -103 0
34 109 -35 0
34 -109 35 0
-34 109 35 0
-34 -109 -35 0
-35 36 0
-35 103 0
35 -103 -36 0
36 106 0
-36 -106 0
37 113 -38 0
37 -113 38 0
-37 113 38 0
-37 -113 -38 0
-38 39 0
-38 106 0
38 -106 -39 0
39 109 0
-39 -109 0
40 117 -41 0
40 -117 41 0
-40 117 41 0
-40 -117 -41 0
-41 42 0
-41 109 0
41 -109 -42 0
42 113 0
-42 -113 0
43 123 -44 0
43 -123 44 0
-43 123 44 0
-43 -123 -44 0
-44 45 0
-44 133 0
44 -133 -45 0
45 137 0
-45 -137 0
46 126 -47 0
46 -126 47 0
-46 126 47 0
-46 -126 -47 0
-47 48 0
-47 137 0
47 -137 -48 0
48 123 0
-48 -123 0
49 129 -50 0
49 -129 50 0
-49 129 50 0
-49 -129 -50 0
-50 51 0
-50 123 0
50 -123 -51 0
51 126 0
-51 -126 0
52 133 -53 0
52 -133 53 0
-52 133 53 0
-52 -133 -53 0
-53 54 0
-53 126 0
53 -126 -54 0
54 129 0
-54 -129 0
55 137 -56 0
55 -137 56 0
-55 137 56 0
-55 -137 -56 0
-56 57 0
-56 129 0
56 -129 -57 0
57 133 0
-57 -133 0
58 143 -59 0
58 -143 59 0
-58 143 59 0
-58 -143 -59 0
-59 60 0
-59 153 0
59 -153 -60 0
60 157 0
-60 -157 0
61 146 -62 0
61 -146 62 0
-61 146 62 0
-61 -146 -62 0
-62 63 0
-62 157 0
62 -157 -63 0
63 143 0
-63 -143 0
64 149 -65 0
64 -149 65 0
-64 149 65 0
-64 -149 -65 0
-65 66 0
-65 143 0
65 -143 -66 0
66 146 0
-66 -146 0
67 153 -68 0
67 -153 68 0
-67 153 68 0
-67 -153 -68 0
-68 69 0
-68 146 0
68 -146 -69 0
69 149 0
-69 -149 0
70 157 -71 0
70 -157 71 0
-70 157 71 0
-70 -157 -71 0
-71 72 0
-71 149 0
71 -149 -72 0
72 153 0
-72 -153 0
73 163 -74 0
73 -163 74 0
-73 163 74 0
-73 -163 -74 0
-74 75 0
-74 173 0
74 -173 -75 0
75 177 0
-75 -177 0
76 166 -77 0
76 -166 77 0
-76 166 77 0
-76 -166 -77 0
-77 78 0
-77 177 0
77 -177 -78 0
78 163 0
-78 -163 0
79 169 -80 0
79 -169 80 0
-79 169 80 0
-79 -169 -80 0
-80 81 0
-80 163 0
80 -163 -81 0
81 166 0
-81 -166 0
82 173 -83 0
82 -173 83 0
-82 173 83 0
-82 -173 -83 0
-83 84 0
-83 166 0
83 -166 -84 0
84 169 0
-84 -169 0
85 177 -86 0
85 -177 86 0
-85 177 86 0
-85 -177 -86 0
-86 87 0
-86 169 0
86 -169 -87 0
87 173 0
-87 -173 0
88 183 -89 0
88 -183 89 0
-88 183 89 0
-88 -183 -89 0
-89 90 0
-89 193 0
89 -193 -90 0
90 197 0
-90 -197 0
91 186 -92 0
91 -186 92 0
-91 186 92 0
-91 -186 -92 0
-92 93 0
-92 197 0
92 -197 -93 0
93 183 0
-93 -183 0
94 189 -95 0
94 -189 95 0
-94 189 95 0
-94 -189 -95 0
-95 96 0
-95 183 0
95 -183 -96 0
96 186 0
-96 -186 0
97 193 -98 0
97 -193 98 0
-97 193 98 0
-97 -193 -98 0
-98 99 0
-98 186 0
98 -186 -99 0
99 189 0
-99 -189 0
100 197 -101 0
100 -197 101 0
-100 197 101 0
-100 -197 -101 0
-101 102 0
-101 189 0
101 -189 -102 0
102 193 0
-102 -193 0
103 111 -104 0
103 -111 104 0
-103 111 104 0
-103 -111 -104 0
-104 105 0
-104 121 0
104 -121 -105 0
105 122 0
-105 -122 0
106 115 -107 0
106 -115 107 0
-106 115 107 0
-106 -115 -107 0
-107 108 0
-107 122 0
107 -122 -108 0
108 111 0
-108 -111 0
109 119 -110 0
109 -119 110 0
-109 119 110 0
-109 -119 -110 0
-110 111 0
-110 112 0
110 -112 -111 0
112 115 0
-112 -115 0
113 121 -114 0
113 -121 114 0
-113 121 114 0
-113 -121 -114 0
-114 115 0
-114 116 0
114 -116 -115 0
116 119 0
-116 -119 0
117 122 -118 0
117 -122 118 0
-117 122 118 0
-117 -122 -118 0
-118 119 0
-118 120 0
118 -120 -119 0
120 121 0
-120 -121 0
123 131 -124 0
123 -131 124 0
-123 131 124 0
-123 -131 -124 0
-124 125 0
-124 141 0
124 -141 -125 0
125 142 0
-125 -142 0
126 135 -127 0
126 -135 127 0
-126 135 127 0
-126 -135 -127 0
-127 128 0
-127 142 0
127 -142 -128 0
128 131 0
-128 -131 0
129 139 -130 0
129 -139 130 0
-129 139 130 0
-129 -139 -130 0
-130 131 0
-130 132 0
130 -132 -131 0
132 135 0
-132 -135 0
133 141 -134 0
133 -141 134 0
-133 141 134 0
-133 -141 -134 0
-134 135 0
-134 136 0
134 -136 -135 0
136 139 0
-136 -139 0
137 142 -138 0
137 -142 138 0
-137 142 138 0
-137 -142 -138 0
-138 139 0
-138 140 0
138 -140 -139 0
140 141 0
-140 -141 0
143 151 -144 0
143 -151 144 0
-143 151 144 0
-143 -151 -144 0
-144 145 0
-144 161 0
144 -161 -145 0
145 162 0
-145 -162 0
146 155 -147 0
146 -155 147 0
-146 155 147 0
-146 -155 -147 0
-147 148 0
-147 162 0
147 -162 -148 0
148 151 0
-148 -151 0
149 159 -150 0
149 -159 150 0
-149 159 150 0
-149 -159 -150 0
-150 151 0
-150 152 0
150 -152 -151 0
152 155 0
-152 -155 0
153 161 -154 0
153 -161 154 0
-153 161 154 0
-153 -161 -154 0
-154 155 0
-154 156 0
154 -156 -155 0
156 159 0
-156 -159 0
157 162 -158 0
157 -162 158 0
-157 162 158 0
-157 -162 -158 0
-158 159 0
-158 160 0
158 -160 -159 0
160 161 0
-160 -161 0
163 171 -164 0
163 -171 164 0
-163 171 164 0
-163 -171 -164 0
-164 165 0
-164 181 0
164 -181 -165 0
165 182 0
-165 -182 0
166 175 -167 0
166 -175 167 0
-166 175 167 0
-166 -175 -167 0
-167 168 0
-167 182 0
167 -182 -168 0
168 171 0
-168 -171 0
169 179 -170 0
169 -179 170 0
-169 179 170 0
-169 -179 -170 0
-170 171 0
-170 172 0
170 -172 -171 0
172 175 0
-172 -175 0
173 181 -174 0
173 -181 174 0
-173 181 174 0
-173 -181 -174 0
-174 175 0
-174 176 0
174 -176 -175 0
176 179 0
-176 -179 0
177 182 -178 0
177 -182 178 0
-177 182 178 0
-177 -182 -178 0
-178 179 0
-178 180 0
178 -180 -179 0
180 181 0
-180 -181 0
183 191 -184 0
183 -191 184 0
-183 191 184 0
-183 -191 -184 0
-184 185 0
-184 201 0
184 -201 -185 0
185 202 0
-185 -202 0
186 195 -187 0
186 -195 187 0
-186 195 187 0
-186 -195 -187 0
-187 188 0
-187 202 0
187 -202 -188 0
188 191 0
-188 -191 0
189 199 -190 0
189 -199 190 0
-189 199 190 0
-189 -199 -190 0
-190 191 0
-190 192 0
190 -192 -191 0
192 195 0
-192 -195 0
193 201 -194 0
193 -201 194 0
-193 201 194 0
-193 -201 -194 0
-194 195 0
-194 196 0
194 -196 -195 0
196 199 0
-196 -199 0
197 202 -198 0
197 -202 198 0
-197 202 198 0
-197 -202 -198 0
-198 199 0
-198 200 0
198 -200 -199 0
200 201 0
-200 -201 0
